HFSDDW
15	6	3
0	83	1	73	2	62
0	20	1	35	2	18
0	80	1	32	2	45
0	30	1	63	2	76
0	95	1	80	2	66
0	93	1	58	2	25
0	80	1	3	2	79
0	36	1	31	2	1
0	89	1	46	2	46
0	94	1	2	2	65
0	53	1	84	2	91
0	66	1	7	2	87
0	76	1	69	2	54
0	15	1	84	2	16
0	36	1	75	2	34
LBCmax: 525
RELDUE
-1	102	7	8
-1	216	3	8
-1	188	7	8
-1	337	8	3
-1	337	7	8
-1	251	2	8
-1	171	7	6
-1	259	2	6
-1	177	1	5
-1	348	7	7
-1	200	9	1
-1	187	1	2
-1	246	1	2
-1	147	2	5
-1	333	7	6
DDW
93	111
210	222
173	203
293	381
307	367
201	301
140	202
228	290
142	212
310	386
186	214
178	196
212	280
143	151
283	383
